5 5
4 83 1 80 3 95 2 16 0 26
0 3 4 23 2 57 3 9 1 51
4 88 3 33 0 78 2 92 1 24
2 50 3 52 1 71 4 38 0 44
1 89 2 56 4 66 3 45 0 52
-1
0 1 2 3 5
0 1 2 4 5
0 2 3 4 5
0 1 3 5
0 1 2 4 5
-2
87 165 324 386
3 34 128 155
181 285 381 389
66 180 289
90 186 388 488

437 8
5 12 24 19 4
20 17 1 14 9
15 21 13 7 3
16 11 23 2 8
10 0 22 18 6
